p tw 260 292
1 17
1 229
2 18
2 230
3 25
3 231
4 26
4 232
5 27
5 233
6 28
6 234
7 19
7 235
8 20
8 236
9 21
9 237
10 22
10 238
11 29
11 239
12 30
12 240
13 31
13 241
14 32
14 242
15 23
15 243
16 24
16 244
17 18
17 37
18 38
19 20
19 35
20 39
21 22
21 34
22 40
23 24
23 41
24 42
25 44
26 66
27 33
28 68
29 36
30 60
31 71
32 57
33 34
33 48
34 51
35 36
35 49
36 46
37 47
38 43
39 50
40 45
41 52
42 53
43 44
43 62
44 58
45 46
45 56
46 64
47 54
48 55
49 59
50 80
51 63
52 94
53 61
54 55
54 73
55 67
56 57
56 76
57 72
58 59
58 65
59 75
60 61
60 70
61 77
62 74
63 103
64 69
65 66
65 83
66 84
67 68
67 85
68 78
69 70
69 87
70 81
71 72
71 88
72 89
73 82
74 105
75 86
76 79
77 90
78 79
78 91
79 99
80 81
80 98
81 101
82 115
83 95
84 96
85 97
86 92
87 100
88 102
89 93
90 122
91 92
91 106
92 111
93 94
93 114
94 108
95 142
96 109
97 128
98 110
99 112
100 107
101 113
102 104
103 104
103 119
104 126
105 106
105 116
106 124
107 108
107 125
108 121
109 110
109 123
110 118
111 117
112 120
113 158
114 127
115 116
115 132
116 133
117 118
117 130
118 136
119 120
119 129
120 137
121 122
121 139
122 140
123 134
124 135
125 131
126 138
127 155
128 129
128 146
129 149
130 131
130 147
131 144
132 145
133 141
134 164
135 166
136 148
137 143
138 169
139 150
140 151
141 142
141 160
142 156
143 144
143 154
144 162
145 152
146 153
147 157
148 178
149 161
150 192
151 159
152 153
152 171
153 165
154 155
154 174
155 170
156 157
156 163
157 173
158 159
158 168
159 175
160 172
161 201
162 167
163 164
163 181
164 182
165 166
165 183
166 176
167 168
167 185
168 179
169 170
169 186
170 187
171 180
172 203
173 184
174 177
175 188
176 177
176 189
177 197
178 179
178 196
179 199
180 213
181 193
182 194
183 195
184 190
185 198
186 200
187 191
188 228
189 190
189 204
190 209
191 192
191 212
192 206
193 215
194 207
195 217
196 208
197 210
198 205
199 211
200 202
201 202
201 221
202 225
203 204
203 214
204 218
205 206
205 223
206 227
207 208
207 216
208 220
209 219
210 222
211 224
212 226
213 245
214 246
215 247
216 248
217 249
218 250
219 251
220 252
221 253
222 254
223 255
224 256
225 257
226 258
227 259
228 260
